20
587 233 220
60 45 26
71 43 39
99 71 64
61 41 40
83 79 43
63 52 35
54 33 20
62 57 51
79 76 71
91 81 48
95 70 23
101 57 42
119 76 61
78 54 22
93 68 25
104 94 27
66 65 36
68 66 48
100 46 21
106 81 30
thpack7_19